r = [
0,61,54,64,7,15,8,35,11,24,19,0
];
p = [
0,9,14,29,15,10,9,2,28,11,3,0
];
e = [
0,3,10,12,1,19,4,10,7,8,8,0
];
d = [
0,160,134,93,112,129,57,138,58,114,58,168
];
d_bar = [
0,168,147,119,126,138,65,140,83,124,61,168
];
w = [
0,0.375,0.769230769,0.461538462,0.071428571,2.111111111,0.5,5,0.28,0.8,2.666666667,0
];
